Traveling Salesman Problem/TSP_generados/Aleatorio1621103666_17.tsp
NAME: Aleatorio1621103666_17.tsp
COMMENT: Randomly generated scenario
TYPE: TSP
DIMENSION: 17
EDGE_WEIGHT_TYPE: ATT
NODE_COORD_SECTION
1 36.84 39.96
2 20.87 44.08
3 26.9 20.25
4 35.9 0.5
5 46.43 36.87
6 21.46 6.16
7 10.12 47.3
8 1.35 34.46
9 13.31 0.27
10 42.26 31.19
11 44.4 43.58
12 27.32 41.17
13 47.3 22.83
14 24.11 16.53
15 43.64 43.5
16 46.17 18.35
17 10.97 25.75
