Traveling Salesman Problem/TSP_generados/Aleatorio1621103666_17.opt.tour
NAME: Aleatorio1621103666_17.opt.tour
COMMENT: Optimal solution for Aleatorio1621103666_17 (178.73652050628135)
TYPE: TOUR
DIMENSION: 17
TOUR_SECTION
1 15 11 5 10 13 16 4 9 6 14 3 17 8 7 2 12
-1
EOF
